c
c start with comments
c
p cnf 50 35
-17 -28 29 19 51 -25 0
4 -19 -10 -2 0
38 3 39 -4 -13 0
-12 37 0
-40 -52 49 -6 -15 0
-37 -15 25 0
3 17 11 -49 -13 0
51 -5 -26 -11 -26 0
-19 29 6 0
33 -46 0
25 46 -39 0
-20 11 -40 -18 -50 0
-2 14 7 0
35 28 0
-19 48 -2 -45 -50 0
-21 -21 18 0
-44 2 0
-39 -9 -8 -10 0
-48 -50 30 10 26 0
-17 -34 5 0
41 -19 5 -48 0
22 40 -51 0
39 26 -17 0
-42 21 21 0
10 -32 24 -20 0
-27 -43 0
-24 9 -17 -26 0
13 29 17 0
49 -14 -18 48 9 0
-7 -22 0
-36 -50 44 0
-23 -16 0
25 -32 51 0
15 -41 -48 0
-45 -9 -47 16 0